\ENCODING=ISO-8859-1
\Problem name: ilog.cplex

Maximize
 obj: 7 x_ijk_0_0_0 + 14 x_ijk_0_1_0 + 11 x_ijk_0_2_0 + 5 x_ijk_1_0_0
      + 20 x_ijk_1_1_0 + 19 x_ijk_2_0_0 + 19 x_ijk_2_1_0 + 13 x_ijk_3_0_0
      + 15 x_ijk_3_1_0 + 18 x_ijk_3_2_0 + 14 x_ijk_3_3_0 + 11 x_ijk_3_4_0
      + 5 x_ijk_4_0_0 + 8 x_ijk_4_1_0 + 5 x_ijk_4_2_0 + 7 x_ijk_4_3_0
      + 19 x_ijk_5_0_0 + 17 x_ijk_5_1_0 + x_ijk_5_2_0 + 5 x_ijk_5_3_0
      + 4 x_ijk_6_0_0 + 12 x_ijk_6_1_0 + 3 x_ijk_6_2_0 + 4 x_ijk_7_0_0
      + 3 x_ijk_7_1_0 + 17 x_ijk_7_2_0 + x_ijk_7_3_0 + 16 x_ijk_8_0_0
      + 18 x_ijk_8_1_0 + 15 x_ijk_8_2_0 + 16 x_ijk_9_0_0 + 16 x_ijk_9_1_0
      + 7 x_ijk_0_0_1 + 14 x_ijk_0_1_1 + 11 x_ijk_0_2_1 + 5 x_ijk_1_0_1
      + 20 x_ijk_1_1_1 + 19 x_ijk_2_0_1 + 19 x_ijk_2_1_1 + 13 x_ijk_3_0_1
      + 15 x_ijk_3_1_1 + 18 x_ijk_3_2_1 + 14 x_ijk_3_3_1 + 11 x_ijk_3_4_1
      + 5 x_ijk_4_0_1 + 8 x_ijk_4_1_1 + 5 x_ijk_4_2_1 + 7 x_ijk_4_3_1
      + 19 x_ijk_5_0_1 + 17 x_ijk_5_1_1 + x_ijk_5_2_1 + 5 x_ijk_5_3_1
      + 4 x_ijk_6_0_1 + 12 x_ijk_6_1_1 + 3 x_ijk_6_2_1 + 4 x_ijk_7_0_1
      + 3 x_ijk_7_1_1 + 17 x_ijk_7_2_1 + x_ijk_7_3_1 + 16 x_ijk_8_0_1
      + 18 x_ijk_8_1_1 + 15 x_ijk_8_2_1 + 16 x_ijk_9_0_1 + 16 x_ijk_9_1_1
      + 7 x_ijk_0_0_2 + 14 x_ijk_0_1_2 + 11 x_ijk_0_2_2 + 5 x_ijk_1_0_2
      + 20 x_ijk_1_1_2 + 19 x_ijk_2_0_2 + 19 x_ijk_2_1_2 + 13 x_ijk_3_0_2
      + 15 x_ijk_3_1_2 + 18 x_ijk_3_2_2 + 14 x_ijk_3_3_2 + 11 x_ijk_3_4_2
      + 5 x_ijk_4_0_2 + 8 x_ijk_4_1_2 + 5 x_ijk_4_2_2 + 7 x_ijk_4_3_2
      + 19 x_ijk_5_0_2 + 17 x_ijk_5_1_2 + x_ijk_5_2_2 + 5 x_ijk_5_3_2
      + 4 x_ijk_6_0_2 + 12 x_ijk_6_1_2 + 3 x_ijk_6_2_2 + 4 x_ijk_7_0_2
      + 3 x_ijk_7_1_2 + 17 x_ijk_7_2_2 + x_ijk_7_3_2 + 16 x_ijk_8_0_2
      + 18 x_ijk_8_1_2 + 15 x_ijk_8_2_2 + 16 x_ijk_9_0_2 + 16 x_ijk_9_1_2
      + 7 x_ijk_0_0_3 + 14 x_ijk_0_1_3 + 11 x_ijk_0_2_3 + 5 x_ijk_1_0_3
      + 20 x_ijk_1_1_3 + 19 x_ijk_2_0_3 + 19 x_ijk_2_1_3 + 13 x_ijk_3_0_3
      + 15 x_ijk_3_1_3 + 18 x_ijk_3_2_3 + 14 x_ijk_3_3_3 + 11 x_ijk_3_4_3
      + 5 x_ijk_4_0_3 + 8 x_ijk_4_1_3 + 5 x_ijk_4_2_3 + 7 x_ijk_4_3_3
      + 19 x_ijk_5_0_3 + 17 x_ijk_5_1_3 + x_ijk_5_2_3 + 5 x_ijk_5_3_3
      + 4 x_ijk_6_0_3 + 12 x_ijk_6_1_3 + 3 x_ijk_6_2_3 + 4 x_ijk_7_0_3
      + 3 x_ijk_7_1_3 + 17 x_ijk_7_2_3 + x_ijk_7_3_3 + 16 x_ijk_8_0_3
      + 18 x_ijk_8_1_3 + 15 x_ijk_8_2_3 + 16 x_ijk_9_0_3 + 16 x_ijk_9_1_3
Subject To
 c1:  32 x_ijk_0_0_0 + 30 x_ijk_0_1_0 + 15 x_ijk_0_2_0 + 40 x_ijk_1_0_0
      + 38 x_ijk_1_1_0 + 27 x_ijk_2_0_0 + 18 x_ijk_2_1_0 + 8 x_ijk_3_0_0
      + 14 x_ijk_3_1_0 + 10 x_ijk_3_2_0 + 8 x_ijk_3_3_0 + 38 x_ijk_3_4_0
      + 15 x_ijk_4_0_0 + 12 x_ijk_4_1_0 + 39 x_ijk_4_2_0 + 29 x_ijk_4_3_0
      + 26 x_ijk_5_0_0 + 28 x_ijk_5_1_0 + 32 x_ijk_5_2_0 + x_ijk_5_3_0
      + 15 x_ijk_6_0_0 + 34 x_ijk_6_1_0 + 15 x_ijk_6_2_0 + 25 x_ijk_7_0_0
      + 36 x_ijk_7_1_0 + 3 x_ijk_7_2_0 + 26 x_ijk_7_3_0 + 8 x_ijk_8_0_0
      + 21 x_ijk_8_1_0 + 13 x_ijk_8_2_0 + 4 x_ijk_9_0_0 + 38 x_ijk_9_1_0 <= 81
 c2:  17 x_ijk_0_0_1 + x_ijk_0_1_1 + 7 x_ijk_0_2_1 + 22 x_ijk_1_0_1
      + 8 x_ijk_1_1_1 + 11 x_ijk_2_0_1 + 34 x_ijk_2_1_1 + 7 x_ijk_3_0_1
      + 20 x_ijk_3_1_1 + 31 x_ijk_3_2_1 + 16 x_ijk_3_3_1 + 25 x_ijk_3_4_1
      + 26 x_ijk_4_0_1 + 32 x_ijk_4_1_1 + 22 x_ijk_4_2_1 + x_ijk_4_3_1
      + 10 x_ijk_5_0_1 + 7 x_ijk_5_1_1 + 34 x_ijk_5_2_1 + 13 x_ijk_5_3_1
      + 12 x_ijk_6_0_1 + 26 x_ijk_6_1_1 + 7 x_ijk_6_2_1 + 23 x_ijk_7_0_1
      + 34 x_ijk_7_1_1 + 17 x_ijk_7_2_1 + 33 x_ijk_7_3_1 + 8 x_ijk_8_0_1
      + 17 x_ijk_8_1_1 + 5 x_ijk_8_2_1 + 27 x_ijk_9_0_1 + 32 x_ijk_9_1_1 <= 34
 c3:  26 x_ijk_0_0_2 + 24 x_ijk_0_1_2 + 11 x_ijk_0_2_2 + 38 x_ijk_1_0_2
      + 31 x_ijk_1_1_2 + 21 x_ijk_2_0_2 + 28 x_ijk_2_1_2 + 36 x_ijk_3_0_2
      + 2 x_ijk_3_1_2 + 38 x_ijk_3_2_2 + 24 x_ijk_3_3_2 + 25 x_ijk_3_4_2
      + 15 x_ijk_4_0_2 + x_ijk_4_1_2 + 15 x_ijk_4_2_2 + 33 x_ijk_4_3_2
      + 36 x_ijk_5_0_2 + 39 x_ijk_5_1_2 + 29 x_ijk_5_2_2 + 18 x_ijk_5_3_2
      + 25 x_ijk_6_0_2 + 39 x_ijk_6_1_2 + 21 x_ijk_6_2_2 + 8 x_ijk_7_0_2
      + 30 x_ijk_7_1_2 + 26 x_ijk_7_2_2 + 15 x_ijk_7_3_2 + 7 x_ijk_8_0_2
      + x_ijk_8_1_2 + 10 x_ijk_8_2_2 + 10 x_ijk_9_0_2 + 40 x_ijk_9_1_2 <= 94
 c4:  27 x_ijk_0_0_3 + 9 x_ijk_0_1_3 + 20 x_ijk_0_2_3 + 2 x_ijk_1_0_3
      + 10 x_ijk_1_1_3 + x_ijk_2_0_3 + 18 x_ijk_2_1_3 + 28 x_ijk_3_0_3
      + 12 x_ijk_3_1_3 + 17 x_ijk_3_2_3 + 28 x_ijk_3_3_3 + 11 x_ijk_3_4_3
      + 32 x_ijk_4_0_3 + 39 x_ijk_4_1_3 + 24 x_ijk_4_2_3 + 15 x_ijk_4_3_3
      + 13 x_ijk_5_0_3 + 13 x_ijk_5_1_3 + 6 x_ijk_5_2_3 + 10 x_ijk_5_3_3
      + 21 x_ijk_6_0_3 + 5 x_ijk_6_1_3 + 31 x_ijk_6_2_3 + 7 x_ijk_7_0_3
      + 26 x_ijk_7_1_3 + 11 x_ijk_7_2_3 + 37 x_ijk_7_3_3 + 37 x_ijk_8_0_3
      + 26 x_ijk_8_1_3 + 13 x_ijk_8_2_3 + 32 x_ijk_9_0_3 + 31 x_ijk_9_1_3 <= 67
 c5:  x_ijk_0_0_0 + x_ijk_0_1_0 + x_ijk_0_2_0 <= 1
 c6:  x_ijk_0_0_1 + x_ijk_0_1_1 + x_ijk_0_2_1 <= 1
 c7:  x_ijk_0_0_2 + x_ijk_0_1_2 + x_ijk_0_2_2 <= 1
 c8:  x_ijk_0_0_3 + x_ijk_0_1_3 + x_ijk_0_2_3 <= 1
 c9:  x_ijk_1_0_0 + x_ijk_1_1_0 <= 1
 c10: x_ijk_1_0_1 + x_ijk_1_1_1 <= 1
 c11: x_ijk_1_0_2 + x_ijk_1_1_2 <= 1
 c12: x_ijk_1_0_3 + x_ijk_1_1_3 <= 1
 c13: x_ijk_2_0_0 + x_ijk_2_1_0 <= 1
 c14: x_ijk_2_0_1 + x_ijk_2_1_1 <= 1
 c15: x_ijk_2_0_2 + x_ijk_2_1_2 <= 1
 c16: x_ijk_2_0_3 + x_ijk_2_1_3 <= 1
 c17: x_ijk_3_0_0 + x_ijk_3_1_0 + x_ijk_3_2_0 + x_ijk_3_3_0 + x_ijk_3_4_0 <= 1
 c18: x_ijk_3_0_1 + x_ijk_3_1_1 + x_ijk_3_2_1 + x_ijk_3_3_1 + x_ijk_3_4_1 <= 1
 c19: x_ijk_3_0_2 + x_ijk_3_1_2 + x_ijk_3_2_2 + x_ijk_3_3_2 + x_ijk_3_4_2 <= 1
 c20: x_ijk_3_0_3 + x_ijk_3_1_3 + x_ijk_3_2_3 + x_ijk_3_3_3 + x_ijk_3_4_3 <= 1
 c21: x_ijk_4_0_0 + x_ijk_4_1_0 + x_ijk_4_2_0 + x_ijk_4_3_0 <= 1
 c22: x_ijk_4_0_1 + x_ijk_4_1_1 + x_ijk_4_2_1 + x_ijk_4_3_1 <= 1
 c23: x_ijk_4_0_2 + x_ijk_4_1_2 + x_ijk_4_2_2 + x_ijk_4_3_2 <= 1
 c24: x_ijk_4_0_3 + x_ijk_4_1_3 + x_ijk_4_2_3 + x_ijk_4_3_3 <= 1
 c25: x_ijk_5_0_0 + x_ijk_5_1_0 + x_ijk_5_2_0 + x_ijk_5_3_0 <= 1
 c26: x_ijk_5_0_1 + x_ijk_5_1_1 + x_ijk_5_2_1 + x_ijk_5_3_1 <= 1
 c27: x_ijk_5_0_2 + x_ijk_5_1_2 + x_ijk_5_2_2 + x_ijk_5_3_2 <= 1
 c28: x_ijk_5_0_3 + x_ijk_5_1_3 + x_ijk_5_2_3 + x_ijk_5_3_3 <= 1
 c29: x_ijk_6_0_0 + x_ijk_6_1_0 + x_ijk_6_2_0 <= 1
 c30: x_ijk_6_0_1 + x_ijk_6_1_1 + x_ijk_6_2_1 <= 1
 c31: x_ijk_6_0_2 + x_ijk_6_1_2 + x_ijk_6_2_2 <= 1
 c32: x_ijk_6_0_3 + x_ijk_6_1_3 + x_ijk_6_2_3 <= 1
 c33: x_ijk_7_0_0 + x_ijk_7_1_0 + x_ijk_7_2_0 + x_ijk_7_3_0 <= 1
 c34: x_ijk_7_0_1 + x_ijk_7_1_1 + x_ijk_7_2_1 + x_ijk_7_3_1 <= 1
 c35: x_ijk_7_0_2 + x_ijk_7_1_2 + x_ijk_7_2_2 + x_ijk_7_3_2 <= 1
 c36: x_ijk_7_0_3 + x_ijk_7_1_3 + x_ijk_7_2_3 + x_ijk_7_3_3 <= 1
 c37: x_ijk_8_0_0 + x_ijk_8_1_0 + x_ijk_8_2_0 <= 1
 c38: x_ijk_8_0_1 + x_ijk_8_1_1 + x_ijk_8_2_1 <= 1
 c39: x_ijk_8_0_2 + x_ijk_8_1_2 + x_ijk_8_2_2 <= 1
 c40: x_ijk_8_0_3 + x_ijk_8_1_3 + x_ijk_8_2_3 <= 1
 c41: x_ijk_9_0_0 + x_ijk_9_1_0 <= 1
 c42: x_ijk_9_0_1 + x_ijk_9_1_1 <= 1
 c43: x_ijk_9_0_2 + x_ijk_9_1_2 <= 1
 c44: x_ijk_9_0_3 + x_ijk_9_1_3 <= 1
Bounds
 0 <= x_ijk_0_0_0 <= 1
 0 <= x_ijk_0_1_0 <= 1
 0 <= x_ijk_0_2_0 <= 1
 0 <= x_ijk_1_0_0 <= 1
 0 <= x_ijk_1_1_0 <= 1
 0 <= x_ijk_2_0_0 <= 1
 0 <= x_ijk_2_1_0 <= 1
 0 <= x_ijk_3_0_0 <= 1
 0 <= x_ijk_3_1_0 <= 1
 0 <= x_ijk_3_2_0 <= 1
 0 <= x_ijk_3_3_0 <= 1
 0 <= x_ijk_3_4_0 <= 1
 0 <= x_ijk_4_0_0 <= 1
 0 <= x_ijk_4_1_0 <= 1
 0 <= x_ijk_4_2_0 <= 1
 0 <= x_ijk_4_3_0 <= 1
 0 <= x_ijk_5_0_0 <= 1
 0 <= x_ijk_5_1_0 <= 1
 0 <= x_ijk_5_2_0 <= 1
 0 <= x_ijk_5_3_0 <= 1
 0 <= x_ijk_6_0_0 <= 1
 0 <= x_ijk_6_1_0 <= 1
 0 <= x_ijk_6_2_0 <= 1
 0 <= x_ijk_7_0_0 <= 1
 0 <= x_ijk_7_1_0 <= 1
 0 <= x_ijk_7_2_0 <= 1
 0 <= x_ijk_7_3_0 <= 1
 0 <= x_ijk_8_0_0 <= 1
 0 <= x_ijk_8_1_0 <= 1
 0 <= x_ijk_8_2_0 <= 1
 0 <= x_ijk_9_0_0 <= 1
 0 <= x_ijk_9_1_0 <= 1
 0 <= x_ijk_0_0_1 <= 1
 0 <= x_ijk_0_1_1 <= 1
 0 <= x_ijk_0_2_1 <= 1
 0 <= x_ijk_1_0_1 <= 1
 0 <= x_ijk_1_1_1 <= 1
 0 <= x_ijk_2_0_1 <= 1
 0 <= x_ijk_2_1_1 <= 1
 0 <= x_ijk_3_0_1 <= 1
 0 <= x_ijk_3_1_1 <= 1
 0 <= x_ijk_3_2_1 <= 1
 0 <= x_ijk_3_3_1 <= 1
 0 <= x_ijk_3_4_1 <= 1
 0 <= x_ijk_4_0_1 <= 1
 0 <= x_ijk_4_1_1 <= 1
 0 <= x_ijk_4_2_1 <= 1
 0 <= x_ijk_4_3_1 <= 1
 0 <= x_ijk_5_0_1 <= 1
 0 <= x_ijk_5_1_1 <= 1
 0 <= x_ijk_5_2_1 <= 1
 0 <= x_ijk_5_3_1 <= 1
 0 <= x_ijk_6_0_1 <= 1
 0 <= x_ijk_6_1_1 <= 1
 0 <= x_ijk_6_2_1 <= 1
 0 <= x_ijk_7_0_1 <= 1
 0 <= x_ijk_7_1_1 <= 1
 0 <= x_ijk_7_2_1 <= 1
 0 <= x_ijk_7_3_1 <= 1
 0 <= x_ijk_8_0_1 <= 1
 0 <= x_ijk_8_1_1 <= 1
 0 <= x_ijk_8_2_1 <= 1
 0 <= x_ijk_9_0_1 <= 1
 0 <= x_ijk_9_1_1 <= 1
 0 <= x_ijk_0_0_2 <= 1
 0 <= x_ijk_0_1_2 <= 1
 0 <= x_ijk_0_2_2 <= 1
 0 <= x_ijk_1_0_2 <= 1
 0 <= x_ijk_1_1_2 <= 1
 0 <= x_ijk_2_0_2 <= 1
 0 <= x_ijk_2_1_2 <= 1
 0 <= x_ijk_3_0_2 <= 1
 0 <= x_ijk_3_1_2 <= 1
 0 <= x_ijk_3_2_2 <= 1
 0 <= x_ijk_3_3_2 <= 1
 0 <= x_ijk_3_4_2 <= 1
 0 <= x_ijk_4_0_2 <= 1
 0 <= x_ijk_4_1_2 <= 1
 0 <= x_ijk_4_2_2 <= 1
 0 <= x_ijk_4_3_2 <= 1
 0 <= x_ijk_5_0_2 <= 1
 0 <= x_ijk_5_1_2 <= 1
 0 <= x_ijk_5_2_2 <= 1
 0 <= x_ijk_5_3_2 <= 1
 0 <= x_ijk_6_0_2 <= 1
 0 <= x_ijk_6_1_2 <= 1
 0 <= x_ijk_6_2_2 <= 1
 0 <= x_ijk_7_0_2 <= 1
 0 <= x_ijk_7_1_2 <= 1
 0 <= x_ijk_7_2_2 <= 1
 0 <= x_ijk_7_3_2 <= 1
 0 <= x_ijk_8_0_2 <= 1
 0 <= x_ijk_8_1_2 <= 1
 0 <= x_ijk_8_2_2 <= 1
 0 <= x_ijk_9_0_2 <= 1
 0 <= x_ijk_9_1_2 <= 1
 0 <= x_ijk_0_0_3 <= 1
 0 <= x_ijk_0_1_3 <= 1
 0 <= x_ijk_0_2_3 <= 1
 0 <= x_ijk_1_0_3 <= 1
 0 <= x_ijk_1_1_3 <= 1
 0 <= x_ijk_2_0_3 <= 1
 0 <= x_ijk_2_1_3 <= 1
 0 <= x_ijk_3_0_3 <= 1
 0 <= x_ijk_3_1_3 <= 1
 0 <= x_ijk_3_2_3 <= 1
 0 <= x_ijk_3_3_3 <= 1
 0 <= x_ijk_3_4_3 <= 1
 0 <= x_ijk_4_0_3 <= 1
 0 <= x_ijk_4_1_3 <= 1
 0 <= x_ijk_4_2_3 <= 1
 0 <= x_ijk_4_3_3 <= 1
 0 <= x_ijk_5_0_3 <= 1
 0 <= x_ijk_5_1_3 <= 1
 0 <= x_ijk_5_2_3 <= 1
 0 <= x_ijk_5_3_3 <= 1
 0 <= x_ijk_6_0_3 <= 1
 0 <= x_ijk_6_1_3 <= 1
 0 <= x_ijk_6_2_3 <= 1
 0 <= x_ijk_7_0_3 <= 1
 0 <= x_ijk_7_1_3 <= 1
 0 <= x_ijk_7_2_3 <= 1
 0 <= x_ijk_7_3_3 <= 1
 0 <= x_ijk_8_0_3 <= 1
 0 <= x_ijk_8_1_3 <= 1
 0 <= x_ijk_8_2_3 <= 1
 0 <= x_ijk_9_0_3 <= 1
 0 <= x_ijk_9_1_3 <= 1
Binaries
 x_ijk_0_0_0  x_ijk_0_1_0  x_ijk_0_2_0  x_ijk_1_0_0  x_ijk_1_1_0  x_ijk_2_0_0 
 x_ijk_2_1_0  x_ijk_3_0_0  x_ijk_3_1_0  x_ijk_3_2_0  x_ijk_3_3_0  x_ijk_3_4_0 
 x_ijk_4_0_0  x_ijk_4_1_0  x_ijk_4_2_0  x_ijk_4_3_0  x_ijk_5_0_0  x_ijk_5_1_0 
 x_ijk_5_2_0  x_ijk_5_3_0  x_ijk_6_0_0  x_ijk_6_1_0  x_ijk_6_2_0  x_ijk_7_0_0 
 x_ijk_7_1_0  x_ijk_7_2_0  x_ijk_7_3_0  x_ijk_8_0_0  x_ijk_8_1_0  x_ijk_8_2_0 
 x_ijk_9_0_0  x_ijk_9_1_0  x_ijk_0_0_1  x_ijk_0_1_1  x_ijk_0_2_1  x_ijk_1_0_1 
 x_ijk_1_1_1  x_ijk_2_0_1  x_ijk_2_1_1  x_ijk_3_0_1  x_ijk_3_1_1  x_ijk_3_2_1 
 x_ijk_3_3_1  x_ijk_3_4_1  x_ijk_4_0_1  x_ijk_4_1_1  x_ijk_4_2_1  x_ijk_4_3_1 
 x_ijk_5_0_1  x_ijk_5_1_1  x_ijk_5_2_1  x_ijk_5_3_1  x_ijk_6_0_1  x_ijk_6_1_1 
 x_ijk_6_2_1  x_ijk_7_0_1  x_ijk_7_1_1  x_ijk_7_2_1  x_ijk_7_3_1  x_ijk_8_0_1 
 x_ijk_8_1_1  x_ijk_8_2_1  x_ijk_9_0_1  x_ijk_9_1_1  x_ijk_0_0_2  x_ijk_0_1_2 
 x_ijk_0_2_2  x_ijk_1_0_2  x_ijk_1_1_2  x_ijk_2_0_2  x_ijk_2_1_2  x_ijk_3_0_2 
 x_ijk_3_1_2  x_ijk_3_2_2  x_ijk_3_3_2  x_ijk_3_4_2  x_ijk_4_0_2  x_ijk_4_1_2 
 x_ijk_4_2_2  x_ijk_4_3_2  x_ijk_5_0_2  x_ijk_5_1_2  x_ijk_5_2_2  x_ijk_5_3_2 
 x_ijk_6_0_2  x_ijk_6_1_2  x_ijk_6_2_2  x_ijk_7_0_2  x_ijk_7_1_2  x_ijk_7_2_2 
 x_ijk_7_3_2  x_ijk_8_0_2  x_ijk_8_1_2  x_ijk_8_2_2  x_ijk_9_0_2  x_ijk_9_1_2 
 x_ijk_0_0_3  x_ijk_0_1_3  x_ijk_0_2_3  x_ijk_1_0_3  x_ijk_1_1_3  x_ijk_2_0_3 
 x_ijk_2_1_3  x_ijk_3_0_3  x_ijk_3_1_3  x_ijk_3_2_3  x_ijk_3_3_3  x_ijk_3_4_3 
 x_ijk_4_0_3  x_ijk_4_1_3  x_ijk_4_2_3  x_ijk_4_3_3  x_ijk_5_0_3  x_ijk_5_1_3 
 x_ijk_5_2_3  x_ijk_5_3_3  x_ijk_6_0_3  x_ijk_6_1_3  x_ijk_6_2_3  x_ijk_7_0_3 
 x_ijk_7_1_3  x_ijk_7_2_3  x_ijk_7_3_3  x_ijk_8_0_3  x_ijk_8_1_3  x_ijk_8_2_3 
 x_ijk_9_0_3  x_ijk_9_1_3 
End
